16807
16531729
74243042
101027544
114807987
143542612
282475249
470211272
823378840
823564440
984943658
1115438165
1137522503
1144108930
1441282327
1457850878
1458777923
1622650073
1784484492
2007237709
